* ENCODING=ISO-8859-1
NAME          moore90_2
ROWS
 N  R0004   
 L  R0001   
 L  R0002   
 L  R0003   
COLUMNS
    MARK0000  'MARKER'                 'INTORG'
    C0001     R0004                           1
    C0001     R0001                          -1
    C0001     R0002                          -1
    C0001     R0003                         2.5
    C0002     R0004                           2
    C0002     R0001                         2.5
    C0002     R0002                        -2.5
    C0002     R0003                           1
    MARK0001  'MARKER'                 'INTEND'
RHS
    rhs       R0001                        3.75
    rhs       R0002                       -3.75
    rhs       R0003                        8.75
BOUNDS
 UP bnd       C0001                           3
 LO bnd       C0002                           1
 UP bnd       C0002                           2
ENDATA
